c description: Graph 3-Colorability of graph: 
c generator: CNFgen (0.9.0)
c copyright: (C) 2012-2020 Massimo Lauria <massimo.lauria@uniroma1.it>
c url: https://massimolauria.net/cnfgen
c
p cnf 90 480
1 2 3 0
-1 -2 0
-1 -3 0
-2 -3 0
4 5 6 0
-4 -5 0
-4 -6 0
-5 -6 0
7 8 9 0
-7 -8 0
-7 -9 0
-8 -9 0
10 11 12 0
-10 -11 0
-10 -12 0
-11 -12 0
13 14 15 0
-13 -14 0
-13 -15 0
-14 -15 0
16 17 18 0
-16 -17 0
-16 -18 0
-17 -18 0
19 20 21 0
-19 -20 0
-19 -21 0
-20 -21 0
22 23 24 0
-22 -23 0
-22 -24 0
-23 -24 0
25 26 27 0
-25 -26 0
-25 -27 0
-26 -27 0
28 29 30 0
-28 -29 0
-28 -30 0
-29 -30 0
31 32 33 0
-31 -32 0
-31 -33 0
-32 -33 0
34 35 36 0
-34 -35 0
-34 -36 0
-35 -36 0
37 38 39 0
-37 -38 0
-37 -39 0
-38 -39 0
40 41 42 0
-40 -41 0
-40 -42 0
-41 -42 0
43 44 45 0
-43 -44 0
-43 -45 0
-44 -45 0
46 47 48 0
-46 -47 0
-46 -48 0
-47 -48 0
49 50 51 0
-49 -50 0
-49 -51 0
-50 -51 0
52 53 54 0
-52 -53 0
-52 -54 0
-53 -54 0
55 56 57 0
-55 -56 0
-55 -57 0
-56 -57 0
58 59 60 0
-58 -59 0
-58 -60 0
-59 -60 0
61 62 63 0
-61 -62 0
-61 -63 0
-62 -63 0
64 65 66 0
-64 -65 0
-64 -66 0
-65 -66 0
67 68 69 0
-67 -68 0
-67 -69 0
-68 -69 0
70 71 72 0
-70 -71 0
-70 -72 0
-71 -72 0
73 74 75 0
-73 -74 0
-73 -75 0
-74 -75 0
76 77 78 0
-76 -77 0
-76 -78 0
-77 -78 0
79 80 81 0
-79 -80 0
-79 -81 0
-80 -81 0
82 83 84 0
-82 -83 0
-82 -84 0
-83 -84 0
85 86 87 0
-85 -86 0
-85 -87 0
-86 -87 0
88 89 90 0
-88 -89 0
-88 -90 0
-89 -90 0
-1 -13 0
-2 -14 0
-3 -15 0
-1 -46 0
-2 -47 0
-3 -48 0
-1 -58 0
-2 -59 0
-3 -60 0
-1 -61 0
-2 -62 0
-3 -63 0
-1 -64 0
-2 -65 0
-3 -66 0
-1 -73 0
-2 -74 0
-3 -75 0
-1 -79 0
-2 -80 0
-3 -81 0
-1 -88 0
-2 -89 0
-3 -90 0
-4 -7 0
-5 -8 0
-6 -9 0
-4 -10 0
-5 -11 0
-6 -12 0
-4 -16 0
-5 -17 0
-6 -18 0
-4 -34 0
-5 -35 0
-6 -36 0
-4 -46 0
-5 -47 0
-6 -48 0
-4 -58 0
-5 -59 0
-6 -60 0
-4 -73 0
-5 -74 0
-6 -75 0
-4 -79 0
-5 -80 0
-6 -81 0
-7 -19 0
-8 -20 0
-9 -21 0
-7 -28 0
-8 -29 0
-9 -30 0
-7 -37 0
-8 -38 0
-9 -39 0
-7 -43 0
-8 -44 0
-9 -45 0
-7 -49 0
-8 -50 0
-9 -51 0
-7 -70 0
-8 -71 0
-9 -72 0
-7 -85 0
-8 -86 0
-9 -87 0
-10 -46 0
-11 -47 0
-12 -48 0
-10 -49 0
-11 -50 0
-12 -51 0
-10 -55 0
-11 -56 0
-12 -57 0
-10 -58 0
-11 -59 0
-12 -60 0
-10 -67 0
-11 -68 0
-12 -69 0
-10 -76 0
-11 -77 0
-12 -78 0
-10 -82 0
-11 -83 0
-12 -84 0
-13 -28 0
-14 -29 0
-15 -30 0
-13 -46 0
-14 -47 0
-15 -48 0
-13 -64 0
-14 -65 0
-15 -66 0
-13 -67 0
-14 -68 0
-15 -69 0
-13 -70 0
-14 -71 0
-15 -72 0
-13 -79 0
-14 -80 0
-15 -81 0
-13 -82 0
-14 -83 0
-15 -84 0
-13 -85 0
-14 -86 0
-15 -87 0
-16 -34 0
-17 -35 0
-18 -36 0
-16 -37 0
-17 -38 0
-18 -39 0
-16 -40 0
-17 -41 0
-18 -42 0
-16 -46 0
-17 -47 0
-18 -48 0
-16 -52 0
-17 -53 0
-18 -54 0
-16 -61 0
-17 -62 0
-18 -63 0
-16 -73 0
-17 -74 0
-18 -75 0
-16 -85 0
-17 -86 0
-18 -87 0
-19 -22 0
-20 -23 0
-21 -24 0
-19 -28 0
-20 -29 0
-21 -30 0
-19 -40 0
-20 -41 0
-21 -42 0
-19 -46 0
-20 -47 0
-21 -48 0
-19 -49 0
-20 -50 0
-21 -51 0
-19 -64 0
-20 -65 0
-21 -66 0
-22 -37 0
-23 -38 0
-24 -39 0
-22 -43 0
-23 -44 0
-24 -45 0
-22 -46 0
-23 -47 0
-24 -48 0
-22 -58 0
-23 -59 0
-24 -60 0
-22 -64 0
-23 -65 0
-24 -66 0
-22 -67 0
-23 -68 0
-24 -69 0
-22 -85 0
-23 -86 0
-24 -87 0
-25 -28 0
-26 -29 0
-27 -30 0
-25 -37 0
-26 -38 0
-27 -39 0
-25 -58 0
-26 -59 0
-27 -60 0
-25 -61 0
-26 -62 0
-27 -63 0
-25 -73 0
-26 -74 0
-27 -75 0
-28 -34 0
-29 -35 0
-30 -36 0
-28 -40 0
-29 -41 0
-30 -42 0
-28 -46 0
-29 -47 0
-30 -48 0
-28 -55 0
-29 -56 0
-30 -57 0
-28 -61 0
-29 -62 0
-30 -63 0
-28 -64 0
-29 -65 0
-30 -66 0
-28 -85 0
-29 -86 0
-30 -87 0
-31 -43 0
-32 -44 0
-33 -45 0
-31 -46 0
-32 -47 0
-33 -48 0
-31 -58 0
-32 -59 0
-33 -60 0
-31 -67 0
-32 -68 0
-33 -69 0
-31 -70 0
-32 -71 0
-33 -72 0
-31 -73 0
-32 -74 0
-33 -75 0
-31 -85 0
-32 -86 0
-33 -87 0
-34 -49 0
-35 -50 0
-36 -51 0
-34 -55 0
-35 -56 0
-36 -57 0
-34 -67 0
-35 -68 0
-36 -69 0
-34 -82 0
-35 -83 0
-36 -84 0
-37 -46 0
-38 -47 0
-39 -48 0
-37 -76 0
-38 -77 0
-39 -78 0
-37 -85 0
-38 -86 0
-39 -87 0
-37 -88 0
-38 -89 0
-39 -90 0
-40 -46 0
-41 -47 0
-42 -48 0
-40 -52 0
-41 -53 0
-42 -54 0
-40 -73 0
-41 -74 0
-42 -75 0
-43 -46 0
-44 -47 0
-45 -48 0
-43 -55 0
-44 -56 0
-45 -57 0
-43 -61 0
-44 -62 0
-45 -63 0
-43 -67 0
-44 -68 0
-45 -69 0
-46 -49 0
-47 -50 0
-48 -51 0
-46 -52 0
-47 -53 0
-48 -54 0
-46 -55 0
-47 -56 0
-48 -57 0
-46 -58 0
-47 -59 0
-48 -60 0
-46 -64 0
-47 -65 0
-48 -66 0
-46 -73 0
-47 -74 0
-48 -75 0
-46 -76 0
-47 -77 0
-48 -78 0
-46 -82 0
-47 -83 0
-48 -84 0
-49 -88 0
-50 -89 0
-51 -90 0
-52 -55 0
-53 -56 0
-54 -57 0
-52 -58 0
-53 -59 0
-54 -60 0
-52 -64 0
-53 -65 0
-54 -66 0
-52 -73 0
-53 -74 0
-54 -75 0
-52 -76 0
-53 -77 0
-54 -78 0
-55 -61 0
-56 -62 0
-57 -63 0
-55 -64 0
-56 -65 0
-57 -66 0
-61 -73 0
-62 -74 0
-63 -75 0
-61 -79 0
-62 -80 0
-63 -81 0
-61 -82 0
-62 -83 0
-63 -84 0
-61 -88 0
-62 -89 0
-63 -90 0
-67 -73 0
-68 -74 0
-69 -75 0
-67 -79 0
-68 -80 0
-69 -81 0
-67 -88 0
-68 -89 0
-69 -90 0
-70 -73 0
-71 -74 0
-72 -75 0
-73 -76 0
-74 -77 0
-75 -78 0
-76 -88 0
-77 -89 0
-78 -90 0
-85 -88 0
-86 -89 0
-87 -90 0